p cnf 2431
-2 -56
-3 -59
-4 -62
-5 -65
-6 -68
-7 -71
-8 -75
-9 -79
-10 -83
-11 -87
-12 -91
-13 -95
-14 -99
-15 -103
-16 -107
-17 -111
-18 -115
-19 -119
-20 -123
-21 -127
-22 -131
-23 -135
-24 -139
-25 -143
-26 -147
-27 -151
-28 -155
-29 -159
-30 -163
-31 -167
-32 -171
-33 -175
-34 -179
-35 -183
-36 -187
-37 -191
-38 -2
-38 3
2 -3 38
-39 2
-39 -3
-2 3 39
-40 -38
-40 -39
38 39 40
-41 2
-41 3
-2 -3 41
-42 4
-42 -41
-4 41 42
-43 -4
-43 41
4 -41 43
-44 -42
-44 -43
42 43 44
-45 4
-45 41
-4 -41 45
-46 5
-46 -45
-5 45 46
-47 -5
-47 45
5 -45 47
-48 -46
-48 -47
46 47 48
-49 5
-49 45
-5 -45 49
-50 6
-50 -49
-6 49 50
-51 -6
-51 49
6 -49 51
-52 -50
-52 -51
50 51 52
-53 6
-53 49
-6 -49 53
-54 1
-54 -2
-1 2 54
-55 -1
-55 2
1 -2 55
-56 -54
-56 -55
54 55 56
-57 1
-57 -40
-1 40 57
-58 -1
-58 3
1 -3 58
-59 -57
-59 -58
57 58 59
-60 1
-60 -44
-1 44 60
-61 -1
-61 4
1 -4 61
-62 -60
-62 -61
60 61 62
-63 1
-63 -48
-1 48 63
-64 -1
-64 5
1 -5 64
-65 -63
-65 -64
63 64 65
-66 1
-66 -52
-1 52 66
-67 -1
-67 6
1 -6 67
-68 -66
-68 -67
66 67 68
-69 1
-69 -37
-1 37 69
-70 -1
-70 7
1 -7 70
-71 -69
-71 -70
69 70 71
-72 7
-72 -37
-7 37 72
-73 1
-73 72
-1 -72 73
-74 -1
-74 8
1 -8 74
-75 -73
-75 -74
73 74 75
-76 8
-76 -37
-8 37 76
-77 1
-77 76
-1 -76 77
-78 -1
-78 9
1 -9 78
-79 -77
-79 -78
77 78 79
-80 9
-80 -37
-9 37 80
-81 1
-81 80
-1 -80 81
-82 -1
-82 10
1 -10 82
-83 -81
-83 -82
81 82 83
-84 10
-84 -37
-10 37 84
-85 1
-85 84
-1 -84 85
-86 -1
-86 11
1 -11 86
-87 -85
-87 -86
85 86 87
-88 11
-88 -37
-11 37 88
-89 1
-89 88
-1 -88 89
-90 -1
-90 12
1 -12 90
-91 -89
-91 -90
89 90 91
-92 12
-92 -37
-12 37 92
-93 1
-93 92
-1 -92 93
-94 -1
-94 13
1 -13 94
-95 -93
-95 -94
93 94 95
-96 13
-96 -37
-13 37 96
-97 1
-97 96
-1 -96 97
-98 -1
-98 14
1 -14 98
-99 -97
-99 -98
97 98 99
-100 14
-100 -37
-14 37 100
-101 1
-101 100
-1 -100 101
-102 -1
-102 15
1 -15 102
-103 -101
-103 -102
101 102 103
-104 15
-104 -37
-15 37 104
-105 1
-105 104
-1 -104 105
-106 -1
-106 16
1 -16 106
-107 -105
-107 -106
105 106 107
-108 16
-108 -37
-16 37 108
-109 1
-109 108
-1 -108 109
-110 -1
-110 17
1 -17 110
-111 -109
-111 -110
109 110 111
-112 17
-112 -37
-17 37 112
-113 1
-113 112
-1 -112 113
-114 -1
-114 18
1 -18 114
-115 -113
-115 -114
113 114 115
-116 18
-116 -37
-18 37 116
-117 1
-117 116
-1 -116 117
-118 -1
-118 19
1 -19 118
-119 -117
-119 -118
117 118 119
-120 19
-120 -37
-19 37 120
-121 1
-121 120
-1 -120 121
-122 -1
-122 20
1 -20 122
-123 -121
-123 -122
121 122 123
-124 20
-124 -37
-20 37 124
-125 1
-125 124
-1 -124 125
-126 -1
-126 21
1 -21 126
-127 -125
-127 -126
125 126 127
-128 21
-128 -37
-21 37 128
-129 1
-129 128
-1 -128 129
-130 -1
-130 22
1 -22 130
-131 -129
-131 -130
129 130 131
-132 22
-132 -37
-22 37 132
-133 1
-133 132
-1 -132 133
-134 -1
-134 23
1 -23 134
-135 -133
-135 -134
133 134 135
-136 23
-136 -37
-23 37 136
-137 1
-137 136
-1 -136 137
-138 -1
-138 24
1 -24 138
-139 -137
-139 -138
137 138 139
-140 24
-140 -37
-24 37 140
-141 1
-141 140
-1 -140 141
-142 -1
-142 25
1 -25 142
-143 -141
-143 -142
141 142 143
-144 25
-144 -37
-25 37 144
-145 1
-145 144
-1 -144 145
-146 -1
-146 26
1 -26 146
-147 -145
-147 -146
145 146 147
-148 26
-148 -37
-26 37 148
-149 1
-149 148
-1 -148 149
-150 -1
-150 27
1 -27 150
-151 -149
-151 -150
149 150 151
-152 27
-152 -37
-27 37 152
-153 1
-153 152
-1 -152 153
-154 -1
-154 28
1 -28 154
-155 -153
-155 -154
153 154 155
-156 28
-156 -37
-28 37 156
-157 1
-157 156
-1 -156 157
-158 -1
-158 29
1 -29 158
-159 -157
-159 -158
157 158 159
-160 29
-160 -37
-29 37 160
-161 1
-161 160
-1 -160 161
-162 -1
-162 30
1 -30 162
-163 -161
-163 -162
161 162 163
-164 30
-164 -37
-30 37 164
-165 1
-165 164
-1 -164 165
-166 -1
-166 31
1 -31 166
-167 -165
-167 -166
165 166 167
-168 31
-168 -37
-31 37 168
-169 1
-169 168
-1 -168 169
-170 -1
-170 32
1 -32 170
-171 -169
-171 -170
169 170 171
-172 32
-172 -37
-32 37 172
-173 1
-173 172
-1 -172 173
-174 -1
-174 33
1 -33 174
-175 -173
-175 -174
173 174 175
-176 33
-176 -37
-33 37 176
-177 1
-177 176
-1 -176 177
-178 -1
-178 34
1 -34 178
-179 -177
-179 -178
177 178 179
-180 34
-180 -37
-34 37 180
-181 1
-181 180
-1 -180 181
-182 -1
-182 35
1 -35 182
-183 -181
-183 -182
181 182 183
-184 35
-184 -37
-35 37 184
-185 1
-185 184
-1 -184 185
-186 -1
-186 36
1 -36 186
-187 -185
-187 -186
185 186 187
-188 36
-188 -37
-36 37 188
-189 1
-189 188
-1 -188 189
-190 -1
-190 37
1 -37 190
-191 -189
-191 -190
189 190 191
-192 7
-192 -8
-7 8 192
-193 -7
-193 8
7 -8 193
-194 -192
-194 -193
192 193 194
-195 7
-195 8
-7 -8 195
-196 -9
-196 -194
9 194 196
-197 9
-197 194
-9 -194 197
-198 -196
-198 -197
196 197 198
-199 9
-199 -194
-9 194 199
-200 195
-200 -199
-195 199 200
-201 -195
-201 199
195 -199 201
-202 -200
-202 -201
200 201 202
-203 195
-203 199
-195 -199 203
-204 -10
-204 -198
10 198 204
-205 10
-205 198
-10 -198 205
-206 -204
-206 -205
204 205 206
-207 10
-207 -198
-10 198 207
-208 -203
-208 -206
203 206 208
-209 203
-209 206
-203 -206 209
-210 -208
-210 -209
208 209 210
-211 203
-211 -206
-203 206 211
-212 -207
-212 -211
207 211 212
-213 -202
-213 212
202 -212 213
-214 202
-214 -212
-202 212 214
-215 -213
-215 -214
213 214 215
-216 -202
-216 -212
202 212 216
-217 -11
-217 -210
11 210 217
-218 11
-218 210
-11 -210 218
-219 -217
-219 -218
217 218 219
-220 11
-220 -210
-11 210 220
-221 -215
-221 -220
215 220 221
-222 215
-222 220
-215 -220 222
-223 -221
-223 -222
221 222 223
-224 -215
-224 220
215 -220 224
-225 216
-225 -224
-216 224 225
-226 -216
-226 224
216 -224 226
-227 -225
-227 -226
225 226 227
-228 216
-228 224
-216 -224 228
-229 -12
-229 -219
12 219 229
-230 12
-230 219
-12 -219 230
-231 -229
-231 -230
229 230 231
-232 12
-232 -219
-12 219 232
-233 -228
-233 -231
228 231 233
-234 228
-234 231
-228 -231 234
-235 -233
-235 -234
233 234 235
-236 228
-236 -231
-228 231 236
-237 -232
-237 -236
232 236 237
-238 -223
-238 237
223 -237 238
-239 223
-239 -237
-223 237 239
-240 -238
-240 -239
238 239 240
-241 -223
-241 -237
223 237 241
-242 -227
-242 -241
227 241 242
-243 227
-243 241
-227 -241 243
-244 -242
-244 -243
242 243 244
-245 -227
-245 241
227 -241 245
-246 -13
-246 -235
13 235 246
-247 13
-247 235
-13 -235 247
-248 -246
-248 -247
246 247 248
-249 13
-249 -235
-13 235 249
-250 -245
-250 -248
245 248 250
-251 245
-251 248
-245 -248 251
-252 -250
-252 -251
250 251 252
-253 245
-253 -248
-245 248 253
-254 -249
-254 -253
249 253 254
-255 -240
-255 254
240 -254 255
-256 240
-256 -254
-240 254 256
-257 -255
-257 -256
255 256 257
-258 -240
-258 -254
240 254 258
-259 -244
-259 -258
244 258 259
-260 244
-260 258
-244 -258 260
-261 -259
-261 -260
259 260 261
-262 -244
-262 258
244 -258 262
-263 -14
-263 -252
14 252 263
-264 14
-264 252
-14 -252 264
-265 -263
-265 -264
263 264 265
-266 14
-266 -252
-14 252 266
-267 -262
-267 -265
262 265 267
-268 262
-268 265
-262 -265 268
-269 -267
-269 -268
267 268 269
-270 262
-270 -265
-262 265 270
-271 -266
-271 -270
266 270 271
-272 -257
-272 271
257 -271 272
-273 257
-273 -271
-257 271 273
-274 -272
-274 -273
272 273 274
-275 -257
-275 -271
257 271 275
-276 -261
-276 -275
261 275 276
-277 261
-277 275
-261 -275 277
-278 -276
-278 -277
276 277 278
-279 -261
-279 275
261 -275 279
-280 -15
-280 -269
15 269 280
-281 15
-281 269
-15 -269 281
-282 -280
-282 -281
280 281 282
-283 15
-283 -269
-15 269 283
-284 -274
-284 -283
274 283 284
-285 274
-285 283
-274 -283 285
-286 -284
-286 -285
284 285 286
-287 -274
-287 283
274 -283 287
-288 -278
-288 -287
278 287 288
-289 278
-289 287
-278 -287 289
-290 -288
-290 -289
288 289 290
-291 -278
-291 287
278 -287 291
-292 279
-292 -291
-279 291 292
-293 -279
-293 291
279 -291 293
-294 -292
-294 -293
292 293 294
-295 279
-295 291
-279 -291 295
-296 -16
-296 -282
16 282 296
-297 16
-297 282
-16 -282 297
-298 -296
-298 -297
296 297 298
-299 16
-299 -282
-16 282 299
-300 -295
-300 -298
295 298 300
-301 295
-301 298
-295 -298 301
-302 -300
-302 -301
300 301 302
-303 295
-303 -298
-295 298 303
-304 -299
-304 -303
299 303 304
-305 -286
-305 304
286 -304 305
-306 286
-306 -304
-286 304 306
-307 -305
-307 -306
305 306 307
-308 -286
-308 -304
286 304 308
-309 -290
-309 -308
290 308 309
-310 290
-310 308
-290 -308 310
-311 -309
-311 -310
309 310 311
-312 -290
-312 308
290 -308 312
-313 -294
-313 -312
294 312 313
-314 294
-314 312
-294 -312 314
-315 -313
-315 -314
313 314 315
-316 -294
-316 312
294 -312 316
-317 -17
-317 -302
17 302 317
-318 17
-318 302
-17 -302 318
-319 -317
-319 -318
317 318 319
-320 17
-320 -302
-17 302 320
-321 -316
-321 -319
316 319 321
-322 316
-322 319
-316 -319 322
-323 -321
-323 -322
321 322 323
-324 316
-324 -319
-316 319 324
-325 -320
-325 -324
320 324 325
-326 -307
-326 325
307 -325 326
-327 307
-327 -325
-307 325 327
-328 -326
-328 -327
326 327 328
-329 -307
-329 -325
307 325 329
-330 -311
-330 -329
311 329 330
-331 311
-331 329
-311 -329 331
-332 -330
-332 -331
330 331 332
-333 -311
-333 329
311 -329 333
-334 -315
-334 -333
315 333 334
-335 315
-335 333
-315 -333 335
-336 -334
-336 -335
334 335 336
-337 -315
-337 333
315 -333 337
-338 -18
-338 -323
18 323 338
-339 18
-339 323
-18 -323 339
-340 -338
-340 -339
338 339 340
-341 18
-341 -323
-18 323 341
-342 -337
-342 -340
337 340 342
-343 337
-343 340
-337 -340 343
-344 -342
-344 -343
342 343 344
-345 337
-345 -340
-337 340 345
-346 -341
-346 -345
341 345 346
-347 -328
-347 346
328 -346 347
-348 328
-348 -346
-328 346 348
-349 -347
-349 -348
347 348 349
-350 -328
-350 -346
328 346 350
-351 -332
-351 -350
332 350 351
-352 332
-352 350
-332 -350 352
-353 -351
-353 -352
351 352 353
-354 -332
-354 350
332 -350 354
-355 -336
-355 -354
336 354 355
-356 336
-356 354
-336 -354 356
-357 -355
-357 -356
355 356 357
-358 -336
-358 354
336 -354 358
-359 -19
-359 -344
19 344 359
-360 19
-360 344
-19 -344 360
-361 -359
-361 -360
359 360 361
-362 19
-362 -344
-19 344 362
-363 -358
-363 -361
358 361 363
-364 358
-364 361
-358 -361 364
-365 -363
-365 -364
363 364 365
-366 358
-366 -361
-358 361 366
-367 -362
-367 -366
362 366 367
-368 -349
-368 367
349 -367 368
-369 349
-369 -367
-349 367 369
-370 -368
-370 -369
368 369 370
-371 -349
-371 -367
349 367 371
-372 -353
-372 -371
353 371 372
-373 353
-373 371
-353 -371 373
-374 -372
-374 -373
372 373 374
-375 -353
-375 371
353 -371 375
-376 -357
-376 -375
357 375 376
-377 357
-377 375
-357 -375 377
-378 -376
-378 -377
376 377 378
-379 -357
-379 375
357 -375 379
-380 -20
-380 -365
20 365 380
-381 20
-381 365
-20 -365 381
-382 -380
-382 -381
380 381 382
-383 20
-383 -365
-20 365 383
-384 -379
-384 -382
379 382 384
-385 379
-385 382
-379 -382 385
-386 -384
-386 -385
384 385 386
-387 379
-387 -382
-379 382 387
-388 -383
-388 -387
383 387 388
-389 -370
-389 388
370 -388 389
-390 370
-390 -388
-370 388 390
-391 -389
-391 -390
389 390 391
-392 -370
-392 -388
370 388 392
-393 -374
-393 -392
374 392 393
-394 374
-394 392
-374 -392 394
-395 -393
-395 -394
393 394 395
-396 -374
-396 392
374 -392 396
-397 -378
-397 -396
378 396 397
-398 378
-398 396
-378 -396 398
-399 -397
-399 -398
397 398 399
-400 -378
-400 396
378 -396 400
-401 -21
-401 -386
21 386 401
-402 21
-402 386
-21 -386 402
-403 -401
-403 -402
401 402 403
-404 21
-404 -386
-21 386 404
-405 -400
-405 -403
400 403 405
-406 400
-406 403
-400 -403 406
-407 -405
-407 -406
405 406 407
-408 400
-408 -403
-400 403 408
-409 -404
-409 -408
404 408 409
-410 -391
-410 409
391 -409 410
-411 391
-411 -409
-391 409 411
-412 -410
-412 -411
410 411 412
-413 -391
-413 -409
391 409 413
-414 -395
-414 -413
395 413 414
-415 395
-415 413
-395 -413 415
-416 -414
-416 -415
414 415 416
-417 -395
-417 413
395 -413 417
-418 -399
-418 -417
399 417 418
-419 399
-419 417
-399 -417 419
-420 -418
-420 -419
418 419 420
-421 -399
-421 417
399 -417 421
-422 -22
-422 -407
22 407 422
-423 22
-423 407
-22 -407 423
-424 -422
-424 -423
422 423 424
-425 22
-425 -407
-22 407 425
-426 -421
-426 -424
421 424 426
-427 421
-427 424
-421 -424 427
-428 -426
-428 -427
426 427 428
-429 421
-429 -424
-421 424 429
-430 -425
-430 -429
425 429 430
-431 -412
-431 430
412 -430 431
-432 412
-432 -430
-412 430 432
-433 -431
-433 -432
431 432 433
-434 -412
-434 -430
412 430 434
-435 -416
-435 -434
416 434 435
-436 416
-436 434
-416 -434 436
-437 -435
-437 -436
435 436 437
-438 -416
-438 434
416 -434 438
-439 -420
-439 -438
420 438 439
-440 420
-440 438
-420 -438 440
-441 -439
-441 -440
439 440 441
-442 -420
-442 438
420 -438 442
-443 -23
-443 -428
23 428 443
-444 23
-444 428
-23 -428 444
-445 -443
-445 -444
443 444 445
-446 23
-446 -428
-23 428 446
-447 -433
-447 -446
433 446 447
-448 433
-448 446
-433 -446 448
-449 -447
-449 -448
447 448 449
-450 -433
-450 446
433 -446 450
-451 -437
-451 -450
437 450 451
-452 437
-452 450
-437 -450 452
-453 -451
-453 -452
451 452 453
-454 -437
-454 450
437 -450 454
-455 -441
-455 -454
441 454 455
-456 441
-456 454
-441 -454 456
-457 -455
-457 -456
455 456 457
-458 -441
-458 454
441 -454 458
-459 442
-459 -458
-442 458 459
-460 -442
-460 458
442 -458 460
-461 -459
-461 -460
459 460 461
-462 442
-462 458
-442 -458 462
-463 -24
-463 -445
24 445 463
-464 24
-464 445
-24 -445 464
-465 -463
-465 -464
463 464 465
-466 24
-466 -445
-24 445 466
-467 -462
-467 -465
462 465 467
-468 462
-468 465
-462 -465 468
-469 -467
-469 -468
467 468 469
-470 462
-470 -465
-462 465 470
-471 -466
-471 -470
466 470 471
-472 -449
-472 471
449 -471 472
-473 449
-473 -471
-449 471 473
-474 -472
-474 -473
472 473 474
-475 -449
-475 -471
449 471 475
-476 -453
-476 -475
453 475 476
-477 453
-477 475
-453 -475 477
-478 -476
-478 -477
476 477 478
-479 -453
-479 475
453 -475 479
-480 -457
-480 -479
457 479 480
-481 457
-481 479
-457 -479 481
-482 -480
-482 -481
480 481 482
-483 -457
-483 479
457 -479 483
-484 -461
-484 -483
461 483 484
-485 461
-485 483
-461 -483 485
-486 -484
-486 -485
484 485 486
-487 -461
-487 483
461 -483 487
-488 -25
-488 -469
25 469 488
-489 25
-489 469
-25 -469 489
-490 -488
-490 -489
488 489 490
-491 25
-491 -469
-25 469 491
-492 -487
-492 -490
487 490 492
-493 487
-493 490
-487 -490 493
-494 -492
-494 -493
492 493 494
-495 487
-495 -490
-487 490 495
-496 -491
-496 -495
491 495 496
-497 -474
-497 496
474 -496 497
-498 474
-498 -496
-474 496 498
-499 -497
-499 -498
497 498 499
-500 -474
-500 -496
474 496 500
-501 -478
-501 -500
478 500 501
-502 478
-502 500
-478 -500 502
-503 -501
-503 -502
501 502 503
-504 -478
-504 500
478 -500 504
-505 -482
-505 -504
482 504 505
-506 482
-506 504
-482 -504 506
-507 -505
-507 -506
505 506 507
-508 -482
-508 504
482 -504 508
-509 -486
-509 -508
486 508 509
-510 486
-510 508
-486 -508 510
-511 -509
-511 -510
509 510 511
-512 -486
-512 508
486 -508 512
-513 -26
-513 -494
26 494 513
-514 26
-514 494
-26 -494 514
-515 -513
-515 -514
513 514 515
-516 26
-516 -494
-26 494 516
-517 -512
-517 -515
512 515 517
-518 512
-518 515
-512 -515 518
-519 -517
-519 -518
517 518 519
-520 512
-520 -515
-512 515 520
-521 -516
-521 -520
516 520 521
-522 -499
-522 521
499 -521 522
-523 499
-523 -521
-499 521 523
-524 -522
-524 -523
522 523 524
-525 -499
-525 -521
499 521 525
-526 -503
-526 -525
503 525 526
-527 503
-527 525
-503 -525 527
-528 -526
-528 -527
526 527 528
-529 -503
-529 525
503 -525 529
-530 -507
-530 -529
507 529 530
-531 507
-531 529
-507 -529 531
-532 -530
-532 -531
530 531 532
-533 -507
-533 529
507 -529 533
-534 -511
-534 -533
511 533 534
-535 511
-535 533
-511 -533 535
-536 -534
-536 -535
534 535 536
-537 -511
-537 533
511 -533 537
-538 -27
-538 -519
27 519 538
-539 27
-539 519
-27 -519 539
-540 -538
-540 -539
538 539 540
-541 27
-541 -519
-27 519 541
-542 -537
-542 -540
537 540 542
-543 537
-543 540
-537 -540 543
-544 -542
-544 -543
542 543 544
-545 537
-545 -540
-537 540 545
-546 -541
-546 -545
541 545 546
-547 -524
-547 546
524 -546 547
-548 524
-548 -546
-524 546 548
-549 -547
-549 -548
547 548 549
-550 -524
-550 -546
524 546 550
-551 -528
-551 -550
528 550 551
-552 528
-552 550
-528 -550 552
-553 -551
-553 -552
551 552 553
-554 -528
-554 550
528 -550 554
-555 -532
-555 -554
532 554 555
-556 532
-556 554
-532 -554 556
-557 -555
-557 -556
555 556 557
-558 -532
-558 554
532 -554 558
-559 -536
-559 -558
536 558 559
-560 536
-560 558
-536 -558 560
-561 -559
-561 -560
559 560 561
-562 -536
-562 558
536 -558 562
-563 -28
-563 -544
28 544 563
-564 28
-564 544
-28 -544 564
-565 -563
-565 -564
563 564 565
-566 28
-566 -544
-28 544 566
-567 -562
-567 -565
562 565 567
-568 562
-568 565
-562 -565 568
-569 -567
-569 -568
567 568 569
-570 562
-570 -565
-562 565 570
-571 -566
-571 -570
566 570 571
-572 -549
-572 571
549 -571 572
-573 549
-573 -571
-549 571 573
-574 -572
-574 -573
572 573 574
-575 -549
-575 -571
549 571 575
-576 -553
-576 -575
553 575 576
-577 553
-577 575
-553 -575 577
-578 -576
-578 -577
576 577 578
-579 -553
-579 575
553 -575 579
-580 -557
-580 -579
557 579 580
-581 557
-581 579
-557 -579 581
-582 -580
-582 -581
580 581 582
-583 -557
-583 579
557 -579 583
-584 -561
-584 -583
561 583 584
-585 561
-585 583
-561 -583 585
-586 -584
-586 -585
584 585 586
-587 -561
-587 583
561 -583 587
-588 -29
-588 -569
29 569 588
-589 29
-589 569
-29 -569 589
-590 -588
-590 -589
588 589 590
-591 29
-591 -569
-29 569 591
-592 -587
-592 -590
587 590 592
-593 587
-593 590
-587 -590 593
-594 -592
-594 -593
592 593 594
-595 587
-595 -590
-587 590 595
-596 -591
-596 -595
591 595 596
-597 -574
-597 596
574 -596 597
-598 574
-598 -596
-574 596 598
-599 -597
-599 -598
597 598 599
-600 -574
-600 -596
574 596 600
-601 -578
-601 -600
578 600 601
-602 578
-602 600
-578 -600 602
-603 -601
-603 -602
601 602 603
-604 -578
-604 600
578 -600 604
-605 -582
-605 -604
582 604 605
-606 582
-606 604
-582 -604 606
-607 -605
-607 -606
605 606 607
-608 -582
-608 604
582 -604 608
-609 -586
-609 -608
586 608 609
-610 586
-610 608
-586 -608 610
-611 -609
-611 -610
609 610 611
-612 -586
-612 608
586 -608 612
-613 -30
-613 -594
30 594 613
-614 30
-614 594
-30 -594 614
-615 -613
-615 -614
613 614 615
-616 30
-616 -594
-30 594 616
-617 -612
-617 -615
612 615 617
-618 612
-618 615
-612 -615 618
-619 -617
-619 -618
617 618 619
-620 612
-620 -615
-612 615 620
-621 -616
-621 -620
616 620 621
-622 -599
-622 621
599 -621 622
-623 599
-623 -621
-599 621 623
-624 -622
-624 -623
622 623 624
-625 -599
-625 -621
599 621 625
-626 -603
-626 -625
603 625 626
-627 603
-627 625
-603 -625 627
-628 -626
-628 -627
626 627 628
-629 -603
-629 625
603 -625 629
-630 -607
-630 -629
607 629 630
-631 607
-631 629
-607 -629 631
-632 -630
-632 -631
630 631 632
-633 -607
-633 629
607 -629 633
-634 -611
-634 -633
611 633 634
-635 611
-635 633
-611 -633 635
-636 -634
-636 -635
634 635 636
-637 -611
-637 633
611 -633 637
-638 -31
-638 -619
31 619 638
-639 31
-639 619
-31 -619 639
-640 -638
-640 -639
638 639 640
-641 31
-641 -619
-31 619 641
-642 -637
-642 -640
637 640 642
-643 637
-643 640
-637 -640 643
-644 -642
-644 -643
642 643 644
-645 637
-645 -640
-637 640 645
-646 -641
-646 -645
641 645 646
-647 -624
-647 646
624 -646 647
-648 624
-648 -646
-624 646 648
-649 -647
-649 -648
647 648 649
-650 -624
-650 -646
624 646 650
-651 -628
-651 -650
628 650 651
-652 628
-652 650
-628 -650 652
-653 -651
-653 -652
651 652 653
-654 -628
-654 650
628 -650 654
-655 -632
-655 -654
632 654 655
-656 632
-656 654
-632 -654 656
-657 -655
-657 -656
655 656 657
-658 -632
-658 654
632 -654 658
-659 -636
-659 -658
636 658 659
-660 636
-660 658
-636 -658 660
-661 -659
-661 -660
659 660 661
-662 -636
-662 658
636 -658 662
-663 -32
-663 -644
32 644 663
-664 32
-664 644
-32 -644 664
-665 -663
-665 -664
663 664 665
-666 32
-666 -644
-32 644 666
-667 -662
-667 -665
662 665 667
-668 662
-668 665
-662 -665 668
-669 -667
-669 -668
667 668 669
-670 662
-670 -665
-662 665 670
-671 -666
-671 -670
666 670 671
-672 -649
-672 671
649 -671 672
-673 649
-673 -671
-649 671 673
-674 -672
-674 -673
672 673 674
-675 -649
-675 -671
649 671 675
-676 -653
-676 -675
653 675 676
-677 653
-677 675
-653 -675 677
-678 -676
-678 -677
676 677 678
-679 -653
-679 675
653 -675 679
-680 -657
-680 -679
657 679 680
-681 657
-681 679
-657 -679 681
-682 -680
-682 -681
680 681 682
-683 -657
-683 679
657 -679 683
-684 -661
-684 -683
661 683 684
-685 661
-685 683
-661 -683 685
-686 -684
-686 -685
684 685 686
-687 -661
-687 683
661 -683 687
-688 -33
-688 -669
33 669 688
-689 33
-689 669
-33 -669 689
-690 -688
-690 -689
688 689 690
-691 33
-691 -669
-33 669 691
-692 -687
-692 -690
687 690 692
-693 687
-693 690
-687 -690 693
-694 -692
-694 -693
692 693 694
-695 687
-695 -690
-687 690 695
-696 -691
-696 -695
691 695 696
-697 -674
-697 696
674 -696 697
-698 674
-698 -696
-674 696 698
-699 -697
-699 -698
697 698 699
-700 -674
-700 -696
674 696 700
-701 -678
-701 -700
678 700 701
-702 678
-702 700
-678 -700 702
-703 -701
-703 -702
701 702 703
-704 -678
-704 700
678 -700 704
-705 -682
-705 -704
682 704 705
-706 682
-706 704
-682 -704 706
-707 -705
-707 -706
705 706 707
-708 -682
-708 704
682 -704 708
-709 -686
-709 -708
686 708 709
-710 686
-710 708
-686 -708 710
-711 -709
-711 -710
709 710 711
-712 -686
-712 708
686 -708 712
-713 -34
-713 -694
34 694 713
-714 34
-714 694
-34 -694 714
-715 -713
-715 -714
713 714 715
-716 34
-716 -694
-34 694 716
-717 -712
-717 -715
712 715 717
-718 712
-718 715
-712 -715 718
-719 -717
-719 -718
717 718 719
-720 712
-720 -715
-712 715 720
-721 -716
-721 -720
716 720 721
-722 -699
-722 721
699 -721 722
-723 699
-723 -721
-699 721 723
-724 -722
-724 -723
722 723 724
-725 -699
-725 -721
699 721 725
-726 -703
-726 -725
703 725 726
-727 703
-727 725
-703 -725 727
-728 -726
-728 -727
726 727 728
-729 -703
-729 725
703 -725 729
-730 -707
-730 -729
707 729 730
-731 707
-731 729
-707 -729 731
-732 -730
-732 -731
730 731 732
-733 -707
-733 729
707 -729 733
-734 -711
-734 -733
711 733 734
-735 711
-735 733
-711 -733 735
-736 -734
-736 -735
734 735 736
-737 -711
-737 733
711 -733 737
-738 -35
-738 -719
35 719 738
-739 35
-739 719
-35 -719 739
-740 -738
-740 -739
738 739 740
-741 35
-741 -719
-35 719 741
-742 -737
-742 -740
737 740 742
-743 737
-743 740
-737 -740 743
-744 -742
-744 -743
742 743 744
-745 737
-745 -740
-737 740 745
-746 -741
-746 -745
741 745 746
-747 -724
-747 746
724 -746 747
-748 724
-748 -746
-724 746 748
-749 -747
-749 -748
747 748 749
-750 -724
-750 -746
724 746 750
-751 -728
-751 -750
728 750 751
-752 728
-752 750
-728 -750 752
-753 -751
-753 -752
751 752 753
-754 -728
-754 750
728 -750 754
-755 -732
-755 -754
732 754 755
-756 732
-756 754
-732 -754 756
-757 -755
-757 -756
755 756 757
-758 -732
-758 754
732 -754 758
-759 -736
-759 -758
736 758 759
-760 736
-760 758
-736 -758 760
-761 -759
-761 -760
759 760 761
-762 -736
-762 758
736 -758 762
-763 -36
-763 -744
36 744 763
-764 36
-764 744
-36 -744 764
-765 -763
-765 -764
763 764 765
-766 36
-766 -744
-36 744 766
-767 -762
-767 -765
762 765 767
-768 762
-768 765
-762 -765 768
-769 -767
-769 -768
767 768 769
-770 762
-770 -765
-762 765 770
-771 -766
-771 -770
766 770 771
-772 -749
-772 771
749 -771 772
-773 749
-773 -771
-749 771 773
-774 -772
-774 -773
772 773 774
-775 -749
-775 -771
749 771 775
-776 -753
-776 -775
753 775 776
-777 753
-777 775
-753 -775 777
-778 -776
-778 -777
776 777 778
-779 -753
-779 775
753 -775 779
-780 -757
-780 -779
757 779 780
-781 757
-781 779
-757 -779 781
-782 -780
-782 -781
780 781 782
-783 -757
-783 779
757 -779 783
-784 -761
-784 -783
761 783 784
-785 761
-785 783
-761 -783 785
-786 -784
-786 -785
784 785 786
-787 -761
-787 783
761 -783 787
-788 -37
-788 -769
37 769 788
-789 37
-789 769
-37 -769 789
-790 -788
-790 -789
788 789 790
-791 37
-791 -769
-37 769 791
-792 -787
-792 -790
787 790 792
-793 787
-793 790
-787 -790 793
-794 -792
-794 -793
792 793 794
-795 787
-795 -790
-787 790 795
-796 -791
-796 -795
791 795 796
-797 -774
-797 796
774 -796 797
-798 774
-798 -796
-774 796 798
-799 -797
-799 -798
797 798 799
-800 -774
-800 -796
774 796 800
-801 -778
-801 -800
778 800 801
-802 778
-802 800
-778 -800 802
-803 -801
-803 -802
801 802 803
-804 -778
-804 800
778 -800 804
-805 -782
-805 -804
782 804 805
-806 782
-806 804
-782 -804 806
-807 -805
-807 -806
805 806 807
-808 -782
-808 804
782 -804 808
-809 -786
-809 -808
786 808 809
-810 786
-810 808
-786 -808 810
-811 -809
-811 -810
809 810 811
-812 -786
-812 808
786 -808 812
-813 2
-813 -794
-2 794 813
-814 -2
-814 794
2 -794 814
-815 -813
-815 -814
813 814 815
-816 3
-816 -799
-3 799 816
-817 -3
-817 799
3 -799 817
-818 -816
-818 -817
816 817 818
-819 4
-819 -803
-4 803 819
-820 -4
-820 803
4 -803 820
-821 -819
-821 -820
819 820 821
-822 5
-822 -807
-5 807 822
-823 -5
-823 807
5 -807 823
-824 -822
-824 -823
822 823 824
-825 6
-825 -811
-6 811 825
-826 -6
-826 811
6 -811 826
-827 -825
-827 -826
825 826 827
-828 -815
-828 -818
815 818 828
-829 -821
-829 -824
821 824 829
-830 828
-830 829
-828 -829 830
-831 -827
-831 830
827 -830 831
-832 -37
-832 53
37 -53 832
-833 37
-833 -53
-37 53 833
-834 -832
-834 -833
832 833 834
-835 831
-835 834
-831 -834 835
-835
